objective value:                           658.582348
t_x89                                               1 	(obj:0)
t_x340                                              1 	(obj:0)
t_x672                                              1 	(obj:0)
t_x1089                                             1 	(obj:0)
t_x1421                                             1 	(obj:0)
t_x1643                                             1 	(obj:0)
t_x2049                                             1 	(obj:0)
t_x2369                                             1 	(obj:0)
t_x2704                                             1 	(obj:0)
t_x2835                                             1 	(obj:0)
t_x3333                                             1 	(obj:0)
t_x3483                                             1 	(obj:0)
t_x3986                                             1 	(obj:0)
t_x4239                                             1 	(obj:0)
t_x4490                                             1 	(obj:0)
t_x4797                                             1 	(obj:0)
t_x5185                                             1 	(obj:0)
t_x5445                                             1 	(obj:0)
t_x5969                                             1 	(obj:0)
t_x6099                                             1 	(obj:0)
t_x6713                                             1 	(obj:0)
t_x2                                               17 	(obj:0)
t_x10                                              18 	(obj:0)
t_x17                                               1 	(obj:0)
t_x18                                              16 	(obj:0)
t_x22                                              19 	(obj:0)
t_x26                                2.00000000000001 	(obj:0)
t_x30                                4.00000000000001 	(obj:0)
t_x34                                               8 	(obj:0)
t_x38                                              13 	(obj:0)
t_x42                                              12 	(obj:0)
t_x46                                               9 	(obj:0)
t_x50                                              10 	(obj:0)
t_x54                                              14 	(obj:0)
t_x61                                              11 	(obj:0)
t_x64                                              15 	(obj:0)
t_x67                                               7 	(obj:0)
t_x73                                               6 	(obj:0)
t_x74                                3.00000000000001 	(obj:0)
t_x78                                               5 	(obj:0)
t_x1                                       658.582348 	(obj:1)
